; Normalized Portuguese Bank Dataset (numeric features only)
; Min-Max scaled to [-1, 1]
; Numeric column: duration (index 11)

(set-logic QF_AUFLIRA)

(define-fun m () Int 200)
(define-fun n () Int 1)

(declare-const D (Array Int (Array Int Real)))

(define-fun row1 ((x0 Real)) (Array Int Real)
  (store ((as const (Array Int Real)) 0.0) 0 x0)
)

(assert (= (select D 0) (row1 -0.754455)))
(assert (= (select D 1) (row1 -0.863366)))
(assert (= (select D 2) (row1 -0.937624)))
(assert (= (select D 3) (row1 -0.921782)))
(assert (= (select D 4) (row1 -0.816832)))
(assert (= (select D 5) (row1 -0.875248)))
(assert (= (select D 6) (row1 -0.798020)))
(assert (= (select D 7) (row1 -0.636634)))
(assert (= (select D 8) (row1 -0.963366)))
(assert (= (select D 9) (row1 -0.958416)))
(assert (= (select D 10) (row1 -0.793069)))
(assert (= (select D 11) (row1 -0.877228)))
(assert (= (select D 12) (row1 -0.500990)))
(assert (= (select D 13) (row1 -0.942574)))
(assert (= (select D 14) (row1 -0.840594)))
(assert (= (select D 15) (row1 -0.663366)))
(assert (= (select D 16) (row1 -0.915842)))
(assert (= (select D 17) (row1 -0.975248)))
(assert (= (select D 18) (row1 -0.796040)))
(assert (= (select D 19) (row1 -0.959406)))
(assert (= (select D 20) (row1 -0.753465)))
(assert (= (select D 21) (row1 -0.850495)))
(assert (= (select D 22) (row1 -0.854455)))
(assert (= (select D 23) (row1 -0.674257)))
(assert (= (select D 24) (row1 -0.833663)))
(assert (= (select D 25) (row1 -0.842574)))
(assert (= (select D 26) (row1 -0.719802)))
(assert (= (select D 27) (row1 -0.887129)))
(assert (= (select D 28) (row1 -0.760396)))
(assert (= (select D 29) (row1 -0.668317)))
(assert (= (select D 30) (row1 -0.790099)))
(assert (= (select D 31) (row1 -0.785149)))
(assert (= (select D 32) (row1 -0.806931)))
(assert (= (select D 33) (row1 -0.789109)))
(assert (= (select D 34) (row1 -0.680198)))
(assert (= (select D 35) (row1 -0.773267)))
(assert (= (select D 36) (row1 -0.651485)))
(assert (= (select D 37) (row1 0.636634)))
(assert (= (select D 38) (row1 -0.441584)))
(assert (= (select D 39) (row1 -0.877228)))
(assert (= (select D 40) (row1 -0.854455)))
(assert (= (select D 41) (row1 -0.834653)))
(assert (= (select D 42) (row1 -0.991089)))
(assert (= (select D 43) (row1 0.464356)))
(assert (= (select D 44) (row1 -0.402970)))
(assert (= (select D 45) (row1 -0.773267)))
(assert (= (select D 46) (row1 -0.661386)))
(assert (= (select D 47) (row1 -0.790099)))
(assert (= (select D 48) (row1 -0.854455)))
(assert (= (select D 49) (row1 -0.653465)))
(assert (= (select D 50) (row1 -0.749505)))
(assert (= (select D 51) (row1 -0.762376)))
(assert (= (select D 52) (row1 -0.835644)))
(assert (= (select D 53) (row1 -0.233663)))
(assert (= (select D 54) (row1 -0.869307)))
(assert (= (select D 55) (row1 -0.840594)))
(assert (= (select D 56) (row1 -0.909901)))
(assert (= (select D 57) (row1 -1.000000)))
(assert (= (select D 58) (row1 -0.829703)))
(assert (= (select D 59) (row1 0.747525)))
(assert (= (select D 60) (row1 -0.876238)))
(assert (= (select D 61) (row1 -0.208911)))
(assert (= (select D 62) (row1 -0.850495)))
(assert (= (select D 63) (row1 -0.625743)))
(assert (= (select D 64) (row1 -0.659406)))
(assert (= (select D 65) (row1 -0.922772)))
(assert (= (select D 66) (row1 -0.490099)))
(assert (= (select D 67) (row1 -0.742574)))
(assert (= (select D 68) (row1 -0.856436)))
(assert (= (select D 69) (row1 -0.837624)))
(assert (= (select D 70) (row1 -0.757426)))
(assert (= (select D 71) (row1 -0.842574)))
(assert (= (select D 72) (row1 -0.860396)))
(assert (= (select D 73) (row1 -0.724752)))
(assert (= (select D 74) (row1 -0.833663)))
(assert (= (select D 75) (row1 -0.838614)))
(assert (= (select D 76) (row1 -0.803960)))
(assert (= (select D 77) (row1 -0.667327)))
(assert (= (select D 78) (row1 -0.743564)))
(assert (= (select D 79) (row1 -0.806931)))
(assert (= (select D 80) (row1 -0.821782)))
(assert (= (select D 81) (row1 -0.802970)))
(assert (= (select D 82) (row1 -0.993069)))
(assert (= (select D 83) (row1 0.018812)))
(assert (= (select D 84) (row1 -0.769307)))
(assert (= (select D 85) (row1 -0.489109)))
(assert (= (select D 86) (row1 0.439604)))
(assert (= (select D 87) (row1 0.362376)))
(assert (= (select D 88) (row1 -0.826733)))
(assert (= (select D 89) (row1 -0.834653)))
(assert (= (select D 90) (row1 -0.965347)))
(assert (= (select D 91) (row1 -0.801980)))
(assert (= (select D 92) (row1 -0.435644)))
(assert (= (select D 93) (row1 -0.794059)))
(assert (= (select D 94) (row1 -0.841584)))
(assert (= (select D 95) (row1 -0.591089)))
(assert (= (select D 96) (row1 -0.728713)))
(assert (= (select D 97) (row1 -0.912871)))
(assert (= (select D 98) (row1 -0.811881)))
(assert (= (select D 99) (row1 -0.817822)))
(assert (= (select D 100) (row1 -0.758416)))
(assert (= (select D 101) (row1 -0.890099)))
(assert (= (select D 102) (row1 -0.786139)))
(assert (= (select D 103) (row1 -0.958416)))
(assert (= (select D 104) (row1 -0.616832)))
(assert (= (select D 105) (row1 -0.817822)))
(assert (= (select D 106) (row1 -0.824752)))
(assert (= (select D 107) (row1 -0.992079)))
(assert (= (select D 108) (row1 -0.503960)))
(assert (= (select D 109) (row1 -0.172277)))
(assert (= (select D 110) (row1 -0.820792)))
(assert (= (select D 111) (row1 -0.870297)))
(assert (= (select D 112) (row1 -0.802970)))
(assert (= (select D 113) (row1 -0.729703)))
(assert (= (select D 114) (row1 -0.906931)))
(assert (= (select D 115) (row1 -0.768317)))
(assert (= (select D 116) (row1 -0.500000)))
(assert (= (select D 117) (row1 -0.652475)))
(assert (= (select D 118) (row1 -0.836634)))
(assert (= (select D 119) (row1 -0.915842)))
(assert (= (select D 120) (row1 -0.578218)))
(assert (= (select D 121) (row1 -0.934653)))
(assert (= (select D 122) (row1 -0.894059)))
(assert (= (select D 123) (row1 -0.887129)))
(assert (= (select D 124) (row1 -0.839604)))
(assert (= (select D 125) (row1 -0.753465)))
(assert (= (select D 126) (row1 -0.952475)))
(assert (= (select D 127) (row1 -0.935644)))
(assert (= (select D 128) (row1 -0.871287)))
(assert (= (select D 129) (row1 -0.439604)))
(assert (= (select D 130) (row1 -0.342574)))
(assert (= (select D 131) (row1 -0.671287)))
(assert (= (select D 132) (row1 -0.829703)))
(assert (= (select D 133) (row1 -0.913861)))
(assert (= (select D 134) (row1 -0.889109)))
(assert (= (select D 135) (row1 -0.821782)))
(assert (= (select D 136) (row1 -0.878218)))
(assert (= (select D 137) (row1 -0.940594)))
(assert (= (select D 138) (row1 -0.490099)))
(assert (= (select D 139) (row1 -0.477228)))
(assert (= (select D 140) (row1 -0.851485)))
(assert (= (select D 141) (row1 -0.714851)))
(assert (= (select D 142) (row1 -0.967327)))
(assert (= (select D 143) (row1 -0.810891)))
(assert (= (select D 144) (row1 -0.915842)))
(assert (= (select D 145) (row1 -0.942574)))
(assert (= (select D 146) (row1 -0.857426)))
(assert (= (select D 147) (row1 -0.772277)))
(assert (= (select D 148) (row1 -0.828713)))
(assert (= (select D 149) (row1 -0.439604)))
(assert (= (select D 150) (row1 -0.851485)))
(assert (= (select D 151) (row1 -0.408911)))
(assert (= (select D 152) (row1 1.000000)))
(assert (= (select D 153) (row1 -0.928713)))
(assert (= (select D 154) (row1 -0.900000)))
(assert (= (select D 155) (row1 -0.900000)))
(assert (= (select D 156) (row1 -0.956436)))
(assert (= (select D 157) (row1 -0.777228)))
(assert (= (select D 158) (row1 -0.920792)))
(assert (= (select D 159) (row1 -0.886139)))
(assert (= (select D 160) (row1 -0.906931)))
(assert (= (select D 161) (row1 -0.833663)))
(assert (= (select D 162) (row1 -0.712871)))
(assert (= (select D 163) (row1 -0.460396)))
(assert (= (select D 164) (row1 -0.745545)))
(assert (= (select D 165) (row1 -0.787129)))
(assert (= (select D 166) (row1 -0.914851)))
(assert (= (select D 167) (row1 -0.775248)))
(assert (= (select D 168) (row1 -0.346535)))
(assert (= (select D 169) (row1 -0.782178)))
(assert (= (select D 170) (row1 0.032673)))
(assert (= (select D 171) (row1 -0.765347)))
(assert (= (select D 172) (row1 -0.763366)))
(assert (= (select D 173) (row1 -0.876238)))
(assert (= (select D 174) (row1 -0.884158)))
(assert (= (select D 175) (row1 -0.604950)))
(assert (= (select D 176) (row1 -0.835644)))
(assert (= (select D 177) (row1 -0.994059)))
(assert (= (select D 178) (row1 -0.559406)))
(assert (= (select D 179) (row1 -0.302970)))
(assert (= (select D 180) (row1 -0.702970)))
(assert (= (select D 181) (row1 -0.336634)))
(assert (= (select D 182) (row1 0.053465)))
(assert (= (select D 183) (row1 -0.600990)))
(assert (= (select D 184) (row1 -0.868317)))
(assert (= (select D 185) (row1 -0.847525)))
(assert (= (select D 186) (row1 -0.700990)))
(assert (= (select D 187) (row1 -0.874257)))
(assert (= (select D 188) (row1 -0.670297)))
(assert (= (select D 189) (row1 -0.456436)))
(assert (= (select D 190) (row1 -0.842574)))
(assert (= (select D 191) (row1 -0.798020)))
(assert (= (select D 192) (row1 -0.872277)))
(assert (= (select D 193) (row1 -0.946535)))
(assert (= (select D 194) (row1 -0.724752)))
(assert (= (select D 195) (row1 -0.706931)))
(assert (= (select D 196) (row1 -0.767327)))
(assert (= (select D 197) (row1 -0.915842)))
(assert (= (select D 198) (row1 -0.759406)))
(assert (= (select D 199) (row1 -0.931683)))


; =====================
; Auxiliary lemmas: well-distributedness (1D)
; =====================

(define-fun sqdist ((p Real) (i Int)) Real
  (* (- p (select (select D i) 0))
     (- p (select (select D i) 0)))
)

(define-fun close_p0 () Bool
  (or
    (<= (sqdist -1.0 0) d2)
    (<= (sqdist -1.0 1) d2)
    (<= (sqdist -1.0 2) d2)
    (<= (sqdist -1.0 3) d2)
    (<= (sqdist -1.0 4) d2)
    (<= (sqdist -1.0 5) d2)
    (<= (sqdist -1.0 6) d2)
    (<= (sqdist -1.0 7) d2)
    (<= (sqdist -1.0 8) d2)
    (<= (sqdist -1.0 9) d2)
    (<= (sqdist -1.0 10) d2)
    (<= (sqdist -1.0 11) d2)
    (<= (sqdist -1.0 12) d2)
    (<= (sqdist -1.0 13) d2)
    (<= (sqdist -1.0 14) d2)
    (<= (sqdist -1.0 15) d2)
    (<= (sqdist -1.0 16) d2)
    (<= (sqdist -1.0 17) d2)
    (<= (sqdist -1.0 18) d2)
    (<= (sqdist -1.0 19) d2)
    (<= (sqdist -1.0 20) d2)
    (<= (sqdist -1.0 21) d2)
    (<= (sqdist -1.0 22) d2)
    (<= (sqdist -1.0 23) d2)
    (<= (sqdist -1.0 24) d2)
    (<= (sqdist -1.0 25) d2)
    (<= (sqdist -1.0 26) d2)
    (<= (sqdist -1.0 27) d2)
    (<= (sqdist -1.0 28) d2)
    (<= (sqdist -1.0 29) d2)
    (<= (sqdist -1.0 30) d2)
    (<= (sqdist -1.0 31) d2)
    (<= (sqdist -1.0 32) d2)
    (<= (sqdist -1.0 33) d2)
    (<= (sqdist -1.0 34) d2)
    (<= (sqdist -1.0 35) d2)
    (<= (sqdist -1.0 36) d2)
    (<= (sqdist -1.0 37) d2)
    (<= (sqdist -1.0 38) d2)
    (<= (sqdist -1.0 39) d2)
    (<= (sqdist -1.0 40) d2)
    (<= (sqdist -1.0 41) d2)
    (<= (sqdist -1.0 42) d2)
    (<= (sqdist -1.0 43) d2)
    (<= (sqdist -1.0 44) d2)
    (<= (sqdist -1.0 45) d2)
    (<= (sqdist -1.0 46) d2)
    (<= (sqdist -1.0 47) d2)
    (<= (sqdist -1.0 48) d2)
    (<= (sqdist -1.0 49) d2)
    (<= (sqdist -1.0 50) d2)
    (<= (sqdist -1.0 51) d2)
    (<= (sqdist -1.0 52) d2)
    (<= (sqdist -1.0 53) d2)
    (<= (sqdist -1.0 54) d2)
    (<= (sqdist -1.0 55) d2)
    (<= (sqdist -1.0 56) d2)
    (<= (sqdist -1.0 57) d2)
    (<= (sqdist -1.0 58) d2)
    (<= (sqdist -1.0 59) d2)
    (<= (sqdist -1.0 60) d2)
    (<= (sqdist -1.0 61) d2)
    (<= (sqdist -1.0 62) d2)
    (<= (sqdist -1.0 63) d2)
    (<= (sqdist -1.0 64) d2)
    (<= (sqdist -1.0 65) d2)
    (<= (sqdist -1.0 66) d2)
    (<= (sqdist -1.0 67) d2)
    (<= (sqdist -1.0 68) d2)
    (<= (sqdist -1.0 69) d2)
    (<= (sqdist -1.0 70) d2)
    (<= (sqdist -1.0 71) d2)
    (<= (sqdist -1.0 72) d2)
    (<= (sqdist -1.0 73) d2)
    (<= (sqdist -1.0 74) d2)
    (<= (sqdist -1.0 75) d2)
    (<= (sqdist -1.0 76) d2)
    (<= (sqdist -1.0 77) d2)
    (<= (sqdist -1.0 78) d2)
    (<= (sqdist -1.0 79) d2)
    (<= (sqdist -1.0 80) d2)
    (<= (sqdist -1.0 81) d2)
    (<= (sqdist -1.0 82) d2)
    (<= (sqdist -1.0 83) d2)
    (<= (sqdist -1.0 84) d2)
    (<= (sqdist -1.0 85) d2)
    (<= (sqdist -1.0 86) d2)
    (<= (sqdist -1.0 87) d2)
    (<= (sqdist -1.0 88) d2)
    (<= (sqdist -1.0 89) d2)
    (<= (sqdist -1.0 90) d2)
    (<= (sqdist -1.0 91) d2)
    (<= (sqdist -1.0 92) d2)
    (<= (sqdist -1.0 93) d2)
    (<= (sqdist -1.0 94) d2)
    (<= (sqdist -1.0 95) d2)
    (<= (sqdist -1.0 96) d2)
    (<= (sqdist -1.0 97) d2)
    (<= (sqdist -1.0 98) d2)
    (<= (sqdist -1.0 99) d2)
    (<= (sqdist -1.0 100) d2)
    (<= (sqdist -1.0 101) d2)
    (<= (sqdist -1.0 102) d2)
    (<= (sqdist -1.0 103) d2)
    (<= (sqdist -1.0 104) d2)
    (<= (sqdist -1.0 105) d2)
    (<= (sqdist -1.0 106) d2)
    (<= (sqdist -1.0 107) d2)
    (<= (sqdist -1.0 108) d2)
    (<= (sqdist -1.0 109) d2)
    (<= (sqdist -1.0 110) d2)
    (<= (sqdist -1.0 111) d2)
    (<= (sqdist -1.0 112) d2)
    (<= (sqdist -1.0 113) d2)
    (<= (sqdist -1.0 114) d2)
    (<= (sqdist -1.0 115) d2)
    (<= (sqdist -1.0 116) d2)
    (<= (sqdist -1.0 117) d2)
    (<= (sqdist -1.0 118) d2)
    (<= (sqdist -1.0 119) d2)
    (<= (sqdist -1.0 120) d2)
    (<= (sqdist -1.0 121) d2)
    (<= (sqdist -1.0 122) d2)
    (<= (sqdist -1.0 123) d2)
    (<= (sqdist -1.0 124) d2)
    (<= (sqdist -1.0 125) d2)
    (<= (sqdist -1.0 126) d2)
    (<= (sqdist -1.0 127) d2)
    (<= (sqdist -1.0 128) d2)
    (<= (sqdist -1.0 129) d2)
    (<= (sqdist -1.0 130) d2)
    (<= (sqdist -1.0 131) d2)
    (<= (sqdist -1.0 132) d2)
    (<= (sqdist -1.0 133) d2)
    (<= (sqdist -1.0 134) d2)
    (<= (sqdist -1.0 135) d2)
    (<= (sqdist -1.0 136) d2)
    (<= (sqdist -1.0 137) d2)
    (<= (sqdist -1.0 138) d2)
    (<= (sqdist -1.0 139) d2)
    (<= (sqdist -1.0 140) d2)
    (<= (sqdist -1.0 141) d2)
    (<= (sqdist -1.0 142) d2)
    (<= (sqdist -1.0 143) d2)
    (<= (sqdist -1.0 144) d2)
    (<= (sqdist -1.0 145) d2)
    (<= (sqdist -1.0 146) d2)
    (<= (sqdist -1.0 147) d2)
    (<= (sqdist -1.0 148) d2)
    (<= (sqdist -1.0 149) d2)
    (<= (sqdist -1.0 150) d2)
    (<= (sqdist -1.0 151) d2)
    (<= (sqdist -1.0 152) d2)
    (<= (sqdist -1.0 153) d2)
    (<= (sqdist -1.0 154) d2)
    (<= (sqdist -1.0 155) d2)
    (<= (sqdist -1.0 156) d2)
    (<= (sqdist -1.0 157) d2)
    (<= (sqdist -1.0 158) d2)
    (<= (sqdist -1.0 159) d2)
    (<= (sqdist -1.0 160) d2)
    (<= (sqdist -1.0 161) d2)
    (<= (sqdist -1.0 162) d2)
    (<= (sqdist -1.0 163) d2)
    (<= (sqdist -1.0 164) d2)
    (<= (sqdist -1.0 165) d2)
    (<= (sqdist -1.0 166) d2)
    (<= (sqdist -1.0 167) d2)
    (<= (sqdist -1.0 168) d2)
    (<= (sqdist -1.0 169) d2)
    (<= (sqdist -1.0 170) d2)
    (<= (sqdist -1.0 171) d2)
    (<= (sqdist -1.0 172) d2)
    (<= (sqdist -1.0 173) d2)
    (<= (sqdist -1.0 174) d2)
    (<= (sqdist -1.0 175) d2)
    (<= (sqdist -1.0 176) d2)
    (<= (sqdist -1.0 177) d2)
    (<= (sqdist -1.0 178) d2)
    (<= (sqdist -1.0 179) d2)
    (<= (sqdist -1.0 180) d2)
    (<= (sqdist -1.0 181) d2)
    (<= (sqdist -1.0 182) d2)
    (<= (sqdist -1.0 183) d2)
    (<= (sqdist -1.0 184) d2)
    (<= (sqdist -1.0 185) d2)
    (<= (sqdist -1.0 186) d2)
    (<= (sqdist -1.0 187) d2)
    (<= (sqdist -1.0 188) d2)
    (<= (sqdist -1.0 189) d2)
    (<= (sqdist -1.0 190) d2)
    (<= (sqdist -1.0 191) d2)
    (<= (sqdist -1.0 192) d2)
    (<= (sqdist -1.0 193) d2)
    (<= (sqdist -1.0 194) d2)
    (<= (sqdist -1.0 195) d2)
    (<= (sqdist -1.0 196) d2)
    (<= (sqdist -1.0 197) d2)
    (<= (sqdist -1.0 198) d2)
    (<= (sqdist -1.0 199) d2)
  )
)

(define-fun close_p1 () Bool
  (or
    (<= (sqdist -0.5 0) d2)
    (<= (sqdist -0.5 1) d2)
    (<= (sqdist -0.5 2) d2)
    (<= (sqdist -0.5 3) d2)
    (<= (sqdist -0.5 4) d2)
    (<= (sqdist -0.5 5) d2)
    (<= (sqdist -0.5 6) d2)
    (<= (sqdist -0.5 7) d2)
    (<= (sqdist -0.5 8) d2)
    (<= (sqdist -0.5 9) d2)
    (<= (sqdist -0.5 10) d2)
    (<= (sqdist -0.5 11) d2)
    (<= (sqdist -0.5 12) d2)
    (<= (sqdist -0.5 13) d2)
    (<= (sqdist -0.5 14) d2)
    (<= (sqdist -0.5 15) d2)
    (<= (sqdist -0.5 16) d2)
    (<= (sqdist -0.5 17) d2)
    (<= (sqdist -0.5 18) d2)
    (<= (sqdist -0.5 19) d2)
    (<= (sqdist -0.5 20) d2)
    (<= (sqdist -0.5 21) d2)
    (<= (sqdist -0.5 22) d2)
    (<= (sqdist -0.5 23) d2)
    (<= (sqdist -0.5 24) d2)
    (<= (sqdist -0.5 25) d2)
    (<= (sqdist -0.5 26) d2)
    (<= (sqdist -0.5 27) d2)
    (<= (sqdist -0.5 28) d2)
    (<= (sqdist -0.5 29) d2)
    (<= (sqdist -0.5 30) d2)
    (<= (sqdist -0.5 31) d2)
    (<= (sqdist -0.5 32) d2)
    (<= (sqdist -0.5 33) d2)
    (<= (sqdist -0.5 34) d2)
    (<= (sqdist -0.5 35) d2)
    (<= (sqdist -0.5 36) d2)
    (<= (sqdist -0.5 37) d2)
    (<= (sqdist -0.5 38) d2)
    (<= (sqdist -0.5 39) d2)
    (<= (sqdist -0.5 40) d2)
    (<= (sqdist -0.5 41) d2)
    (<= (sqdist -0.5 42) d2)
    (<= (sqdist -0.5 43) d2)
    (<= (sqdist -0.5 44) d2)
    (<= (sqdist -0.5 45) d2)
    (<= (sqdist -0.5 46) d2)
    (<= (sqdist -0.5 47) d2)
    (<= (sqdist -0.5 48) d2)
    (<= (sqdist -0.5 49) d2)
    (<= (sqdist -0.5 50) d2)
    (<= (sqdist -0.5 51) d2)
    (<= (sqdist -0.5 52) d2)
    (<= (sqdist -0.5 53) d2)
    (<= (sqdist -0.5 54) d2)
    (<= (sqdist -0.5 55) d2)
    (<= (sqdist -0.5 56) d2)
    (<= (sqdist -0.5 57) d2)
    (<= (sqdist -0.5 58) d2)
    (<= (sqdist -0.5 59) d2)
    (<= (sqdist -0.5 60) d2)
    (<= (sqdist -0.5 61) d2)
    (<= (sqdist -0.5 62) d2)
    (<= (sqdist -0.5 63) d2)
    (<= (sqdist -0.5 64) d2)
    (<= (sqdist -0.5 65) d2)
    (<= (sqdist -0.5 66) d2)
    (<= (sqdist -0.5 67) d2)
    (<= (sqdist -0.5 68) d2)
    (<= (sqdist -0.5 69) d2)
    (<= (sqdist -0.5 70) d2)
    (<= (sqdist -0.5 71) d2)
    (<= (sqdist -0.5 72) d2)
    (<= (sqdist -0.5 73) d2)
    (<= (sqdist -0.5 74) d2)
    (<= (sqdist -0.5 75) d2)
    (<= (sqdist -0.5 76) d2)
    (<= (sqdist -0.5 77) d2)
    (<= (sqdist -0.5 78) d2)
    (<= (sqdist -0.5 79) d2)
    (<= (sqdist -0.5 80) d2)
    (<= (sqdist -0.5 81) d2)
    (<= (sqdist -0.5 82) d2)
    (<= (sqdist -0.5 83) d2)
    (<= (sqdist -0.5 84) d2)
    (<= (sqdist -0.5 85) d2)
    (<= (sqdist -0.5 86) d2)
    (<= (sqdist -0.5 87) d2)
    (<= (sqdist -0.5 88) d2)
    (<= (sqdist -0.5 89) d2)
    (<= (sqdist -0.5 90) d2)
    (<= (sqdist -0.5 91) d2)
    (<= (sqdist -0.5 92) d2)
    (<= (sqdist -0.5 93) d2)
    (<= (sqdist -0.5 94) d2)
    (<= (sqdist -0.5 95) d2)
    (<= (sqdist -0.5 96) d2)
    (<= (sqdist -0.5 97) d2)
    (<= (sqdist -0.5 98) d2)
    (<= (sqdist -0.5 99) d2)
    (<= (sqdist -0.5 100) d2)
    (<= (sqdist -0.5 101) d2)
    (<= (sqdist -0.5 102) d2)
    (<= (sqdist -0.5 103) d2)
    (<= (sqdist -0.5 104) d2)
    (<= (sqdist -0.5 105) d2)
    (<= (sqdist -0.5 106) d2)
    (<= (sqdist -0.5 107) d2)
    (<= (sqdist -0.5 108) d2)
    (<= (sqdist -0.5 109) d2)
    (<= (sqdist -0.5 110) d2)
    (<= (sqdist -0.5 111) d2)
    (<= (sqdist -0.5 112) d2)
    (<= (sqdist -0.5 113) d2)
    (<= (sqdist -0.5 114) d2)
    (<= (sqdist -0.5 115) d2)
    (<= (sqdist -0.5 116) d2)
    (<= (sqdist -0.5 117) d2)
    (<= (sqdist -0.5 118) d2)
    (<= (sqdist -0.5 119) d2)
    (<= (sqdist -0.5 120) d2)
    (<= (sqdist -0.5 121) d2)
    (<= (sqdist -0.5 122) d2)
    (<= (sqdist -0.5 123) d2)
    (<= (sqdist -0.5 124) d2)
    (<= (sqdist -0.5 125) d2)
    (<= (sqdist -0.5 126) d2)
    (<= (sqdist -0.5 127) d2)
    (<= (sqdist -0.5 128) d2)
    (<= (sqdist -0.5 129) d2)
    (<= (sqdist -0.5 130) d2)
    (<= (sqdist -0.5 131) d2)
    (<= (sqdist -0.5 132) d2)
    (<= (sqdist -0.5 133) d2)
    (<= (sqdist -0.5 134) d2)
    (<= (sqdist -0.5 135) d2)
    (<= (sqdist -0.5 136) d2)
    (<= (sqdist -0.5 137) d2)
    (<= (sqdist -0.5 138) d2)
    (<= (sqdist -0.5 139) d2)
    (<= (sqdist -0.5 140) d2)
    (<= (sqdist -0.5 141) d2)
    (<= (sqdist -0.5 142) d2)
    (<= (sqdist -0.5 143) d2)
    (<= (sqdist -0.5 144) d2)
    (<= (sqdist -0.5 145) d2)
    (<= (sqdist -0.5 146) d2)
    (<= (sqdist -0.5 147) d2)
    (<= (sqdist -0.5 148) d2)
    (<= (sqdist -0.5 149) d2)
    (<= (sqdist -0.5 150) d2)
    (<= (sqdist -0.5 151) d2)
    (<= (sqdist -0.5 152) d2)
    (<= (sqdist -0.5 153) d2)
    (<= (sqdist -0.5 154) d2)
    (<= (sqdist -0.5 155) d2)
    (<= (sqdist -0.5 156) d2)
    (<= (sqdist -0.5 157) d2)
    (<= (sqdist -0.5 158) d2)
    (<= (sqdist -0.5 159) d2)
    (<= (sqdist -0.5 160) d2)
    (<= (sqdist -0.5 161) d2)
    (<= (sqdist -0.5 162) d2)
    (<= (sqdist -0.5 163) d2)
    (<= (sqdist -0.5 164) d2)
    (<= (sqdist -0.5 165) d2)
    (<= (sqdist -0.5 166) d2)
    (<= (sqdist -0.5 167) d2)
    (<= (sqdist -0.5 168) d2)
    (<= (sqdist -0.5 169) d2)
    (<= (sqdist -0.5 170) d2)
    (<= (sqdist -0.5 171) d2)
    (<= (sqdist -0.5 172) d2)
    (<= (sqdist -0.5 173) d2)
    (<= (sqdist -0.5 174) d2)
    (<= (sqdist -0.5 175) d2)
    (<= (sqdist -0.5 176) d2)
    (<= (sqdist -0.5 177) d2)
    (<= (sqdist -0.5 178) d2)
    (<= (sqdist -0.5 179) d2)
    (<= (sqdist -0.5 180) d2)
    (<= (sqdist -0.5 181) d2)
    (<= (sqdist -0.5 182) d2)
    (<= (sqdist -0.5 183) d2)
    (<= (sqdist -0.5 184) d2)
    (<= (sqdist -0.5 185) d2)
    (<= (sqdist -0.5 186) d2)
    (<= (sqdist -0.5 187) d2)
    (<= (sqdist -0.5 188) d2)
    (<= (sqdist -0.5 189) d2)
    (<= (sqdist -0.5 190) d2)
    (<= (sqdist -0.5 191) d2)
    (<= (sqdist -0.5 192) d2)
    (<= (sqdist -0.5 193) d2)
    (<= (sqdist -0.5 194) d2)
    (<= (sqdist -0.5 195) d2)
    (<= (sqdist -0.5 196) d2)
    (<= (sqdist -0.5 197) d2)
    (<= (sqdist -0.5 198) d2)
    (<= (sqdist -0.5 199) d2)
  )
)

(define-fun close_p2 () Bool
  (or
    (<= (sqdist 0.0 0) d2)
    (<= (sqdist 0.0 1) d2)
    (<= (sqdist 0.0 2) d2)
    (<= (sqdist 0.0 3) d2)
    (<= (sqdist 0.0 4) d2)
    (<= (sqdist 0.0 5) d2)
    (<= (sqdist 0.0 6) d2)
    (<= (sqdist 0.0 7) d2)
    (<= (sqdist 0.0 8) d2)
    (<= (sqdist 0.0 9) d2)
    (<= (sqdist 0.0 10) d2)
    (<= (sqdist 0.0 11) d2)
    (<= (sqdist 0.0 12) d2)
    (<= (sqdist 0.0 13) d2)
    (<= (sqdist 0.0 14) d2)
    (<= (sqdist 0.0 15) d2)
    (<= (sqdist 0.0 16) d2)
    (<= (sqdist 0.0 17) d2)
    (<= (sqdist 0.0 18) d2)
    (<= (sqdist 0.0 19) d2)
    (<= (sqdist 0.0 20) d2)
    (<= (sqdist 0.0 21) d2)
    (<= (sqdist 0.0 22) d2)
    (<= (sqdist 0.0 23) d2)
    (<= (sqdist 0.0 24) d2)
    (<= (sqdist 0.0 25) d2)
    (<= (sqdist 0.0 26) d2)
    (<= (sqdist 0.0 27) d2)
    (<= (sqdist 0.0 28) d2)
    (<= (sqdist 0.0 29) d2)
    (<= (sqdist 0.0 30) d2)
    (<= (sqdist 0.0 31) d2)
    (<= (sqdist 0.0 32) d2)
    (<= (sqdist 0.0 33) d2)
    (<= (sqdist 0.0 34) d2)
    (<= (sqdist 0.0 35) d2)
    (<= (sqdist 0.0 36) d2)
    (<= (sqdist 0.0 37) d2)
    (<= (sqdist 0.0 38) d2)
    (<= (sqdist 0.0 39) d2)
    (<= (sqdist 0.0 40) d2)
    (<= (sqdist 0.0 41) d2)
    (<= (sqdist 0.0 42) d2)
    (<= (sqdist 0.0 43) d2)
    (<= (sqdist 0.0 44) d2)
    (<= (sqdist 0.0 45) d2)
    (<= (sqdist 0.0 46) d2)
    (<= (sqdist 0.0 47) d2)
    (<= (sqdist 0.0 48) d2)
    (<= (sqdist 0.0 49) d2)
    (<= (sqdist 0.0 50) d2)
    (<= (sqdist 0.0 51) d2)
    (<= (sqdist 0.0 52) d2)
    (<= (sqdist 0.0 53) d2)
    (<= (sqdist 0.0 54) d2)
    (<= (sqdist 0.0 55) d2)
    (<= (sqdist 0.0 56) d2)
    (<= (sqdist 0.0 57) d2)
    (<= (sqdist 0.0 58) d2)
    (<= (sqdist 0.0 59) d2)
    (<= (sqdist 0.0 60) d2)
    (<= (sqdist 0.0 61) d2)
    (<= (sqdist 0.0 62) d2)
    (<= (sqdist 0.0 63) d2)
    (<= (sqdist 0.0 64) d2)
    (<= (sqdist 0.0 65) d2)
    (<= (sqdist 0.0 66) d2)
    (<= (sqdist 0.0 67) d2)
    (<= (sqdist 0.0 68) d2)
    (<= (sqdist 0.0 69) d2)
    (<= (sqdist 0.0 70) d2)
    (<= (sqdist 0.0 71) d2)
    (<= (sqdist 0.0 72) d2)
    (<= (sqdist 0.0 73) d2)
    (<= (sqdist 0.0 74) d2)
    (<= (sqdist 0.0 75) d2)
    (<= (sqdist 0.0 76) d2)
    (<= (sqdist 0.0 77) d2)
    (<= (sqdist 0.0 78) d2)
    (<= (sqdist 0.0 79) d2)
    (<= (sqdist 0.0 80) d2)
    (<= (sqdist 0.0 81) d2)
    (<= (sqdist 0.0 82) d2)
    (<= (sqdist 0.0 83) d2)
    (<= (sqdist 0.0 84) d2)
    (<= (sqdist 0.0 85) d2)
    (<= (sqdist 0.0 86) d2)
    (<= (sqdist 0.0 87) d2)
    (<= (sqdist 0.0 88) d2)
    (<= (sqdist 0.0 89) d2)
    (<= (sqdist 0.0 90) d2)
    (<= (sqdist 0.0 91) d2)
    (<= (sqdist 0.0 92) d2)
    (<= (sqdist 0.0 93) d2)
    (<= (sqdist 0.0 94) d2)
    (<= (sqdist 0.0 95) d2)
    (<= (sqdist 0.0 96) d2)
    (<= (sqdist 0.0 97) d2)
    (<= (sqdist 0.0 98) d2)
    (<= (sqdist 0.0 99) d2)
    (<= (sqdist 0.0 100) d2)
    (<= (sqdist 0.0 101) d2)
    (<= (sqdist 0.0 102) d2)
    (<= (sqdist 0.0 103) d2)
    (<= (sqdist 0.0 104) d2)
    (<= (sqdist 0.0 105) d2)
    (<= (sqdist 0.0 106) d2)
    (<= (sqdist 0.0 107) d2)
    (<= (sqdist 0.0 108) d2)
    (<= (sqdist 0.0 109) d2)
    (<= (sqdist 0.0 110) d2)
    (<= (sqdist 0.0 111) d2)
    (<= (sqdist 0.0 112) d2)
    (<= (sqdist 0.0 113) d2)
    (<= (sqdist 0.0 114) d2)
    (<= (sqdist 0.0 115) d2)
    (<= (sqdist 0.0 116) d2)
    (<= (sqdist 0.0 117) d2)
    (<= (sqdist 0.0 118) d2)
    (<= (sqdist 0.0 119) d2)
    (<= (sqdist 0.0 120) d2)
    (<= (sqdist 0.0 121) d2)
    (<= (sqdist 0.0 122) d2)
    (<= (sqdist 0.0 123) d2)
    (<= (sqdist 0.0 124) d2)
    (<= (sqdist 0.0 125) d2)
    (<= (sqdist 0.0 126) d2)
    (<= (sqdist 0.0 127) d2)
    (<= (sqdist 0.0 128) d2)
    (<= (sqdist 0.0 129) d2)
    (<= (sqdist 0.0 130) d2)
    (<= (sqdist 0.0 131) d2)
    (<= (sqdist 0.0 132) d2)
    (<= (sqdist 0.0 133) d2)
    (<= (sqdist 0.0 134) d2)
    (<= (sqdist 0.0 135) d2)
    (<= (sqdist 0.0 136) d2)
    (<= (sqdist 0.0 137) d2)
    (<= (sqdist 0.0 138) d2)
    (<= (sqdist 0.0 139) d2)
    (<= (sqdist 0.0 140) d2)
    (<= (sqdist 0.0 141) d2)
    (<= (sqdist 0.0 142) d2)
    (<= (sqdist 0.0 143) d2)
    (<= (sqdist 0.0 144) d2)
    (<= (sqdist 0.0 145) d2)
    (<= (sqdist 0.0 146) d2)
    (<= (sqdist 0.0 147) d2)
    (<= (sqdist 0.0 148) d2)
    (<= (sqdist 0.0 149) d2)
    (<= (sqdist 0.0 150) d2)
    (<= (sqdist 0.0 151) d2)
    (<= (sqdist 0.0 152) d2)
    (<= (sqdist 0.0 153) d2)
    (<= (sqdist 0.0 154) d2)
    (<= (sqdist 0.0 155) d2)
    (<= (sqdist 0.0 156) d2)
    (<= (sqdist 0.0 157) d2)
    (<= (sqdist 0.0 158) d2)
    (<= (sqdist 0.0 159) d2)
    (<= (sqdist 0.0 160) d2)
    (<= (sqdist 0.0 161) d2)
    (<= (sqdist 0.0 162) d2)
    (<= (sqdist 0.0 163) d2)
    (<= (sqdist 0.0 164) d2)
    (<= (sqdist 0.0 165) d2)
    (<= (sqdist 0.0 166) d2)
    (<= (sqdist 0.0 167) d2)
    (<= (sqdist 0.0 168) d2)
    (<= (sqdist 0.0 169) d2)
    (<= (sqdist 0.0 170) d2)
    (<= (sqdist 0.0 171) d2)
    (<= (sqdist 0.0 172) d2)
    (<= (sqdist 0.0 173) d2)
    (<= (sqdist 0.0 174) d2)
    (<= (sqdist 0.0 175) d2)
    (<= (sqdist 0.0 176) d2)
    (<= (sqdist 0.0 177) d2)
    (<= (sqdist 0.0 178) d2)
    (<= (sqdist 0.0 179) d2)
    (<= (sqdist 0.0 180) d2)
    (<= (sqdist 0.0 181) d2)
    (<= (sqdist 0.0 182) d2)
    (<= (sqdist 0.0 183) d2)
    (<= (sqdist 0.0 184) d2)
    (<= (sqdist 0.0 185) d2)
    (<= (sqdist 0.0 186) d2)
    (<= (sqdist 0.0 187) d2)
    (<= (sqdist 0.0 188) d2)
    (<= (sqdist 0.0 189) d2)
    (<= (sqdist 0.0 190) d2)
    (<= (sqdist 0.0 191) d2)
    (<= (sqdist 0.0 192) d2)
    (<= (sqdist 0.0 193) d2)
    (<= (sqdist 0.0 194) d2)
    (<= (sqdist 0.0 195) d2)
    (<= (sqdist 0.0 196) d2)
    (<= (sqdist 0.0 197) d2)
    (<= (sqdist 0.0 198) d2)
    (<= (sqdist 0.0 199) d2)
  )
)

(define-fun close_p3 () Bool
  (or
    (<= (sqdist 0.5 0) d2)
    (<= (sqdist 0.5 1) d2)
    (<= (sqdist 0.5 2) d2)
    (<= (sqdist 0.5 3) d2)
    (<= (sqdist 0.5 4) d2)
    (<= (sqdist 0.5 5) d2)
    (<= (sqdist 0.5 6) d2)
    (<= (sqdist 0.5 7) d2)
    (<= (sqdist 0.5 8) d2)
    (<= (sqdist 0.5 9) d2)
    (<= (sqdist 0.5 10) d2)
    (<= (sqdist 0.5 11) d2)
    (<= (sqdist 0.5 12) d2)
    (<= (sqdist 0.5 13) d2)
    (<= (sqdist 0.5 14) d2)
    (<= (sqdist 0.5 15) d2)
    (<= (sqdist 0.5 16) d2)
    (<= (sqdist 0.5 17) d2)
    (<= (sqdist 0.5 18) d2)
    (<= (sqdist 0.5 19) d2)
    (<= (sqdist 0.5 20) d2)
    (<= (sqdist 0.5 21) d2)
    (<= (sqdist 0.5 22) d2)
    (<= (sqdist 0.5 23) d2)
    (<= (sqdist 0.5 24) d2)
    (<= (sqdist 0.5 25) d2)
    (<= (sqdist 0.5 26) d2)
    (<= (sqdist 0.5 27) d2)
    (<= (sqdist 0.5 28) d2)
    (<= (sqdist 0.5 29) d2)
    (<= (sqdist 0.5 30) d2)
    (<= (sqdist 0.5 31) d2)
    (<= (sqdist 0.5 32) d2)
    (<= (sqdist 0.5 33) d2)
    (<= (sqdist 0.5 34) d2)
    (<= (sqdist 0.5 35) d2)
    (<= (sqdist 0.5 36) d2)
    (<= (sqdist 0.5 37) d2)
    (<= (sqdist 0.5 38) d2)
    (<= (sqdist 0.5 39) d2)
    (<= (sqdist 0.5 40) d2)
    (<= (sqdist 0.5 41) d2)
    (<= (sqdist 0.5 42) d2)
    (<= (sqdist 0.5 43) d2)
    (<= (sqdist 0.5 44) d2)
    (<= (sqdist 0.5 45) d2)
    (<= (sqdist 0.5 46) d2)
    (<= (sqdist 0.5 47) d2)
    (<= (sqdist 0.5 48) d2)
    (<= (sqdist 0.5 49) d2)
    (<= (sqdist 0.5 50) d2)
    (<= (sqdist 0.5 51) d2)
    (<= (sqdist 0.5 52) d2)
    (<= (sqdist 0.5 53) d2)
    (<= (sqdist 0.5 54) d2)
    (<= (sqdist 0.5 55) d2)
    (<= (sqdist 0.5 56) d2)
    (<= (sqdist 0.5 57) d2)
    (<= (sqdist 0.5 58) d2)
    (<= (sqdist 0.5 59) d2)
    (<= (sqdist 0.5 60) d2)
    (<= (sqdist 0.5 61) d2)
    (<= (sqdist 0.5 62) d2)
    (<= (sqdist 0.5 63) d2)
    (<= (sqdist 0.5 64) d2)
    (<= (sqdist 0.5 65) d2)
    (<= (sqdist 0.5 66) d2)
    (<= (sqdist 0.5 67) d2)
    (<= (sqdist 0.5 68) d2)
    (<= (sqdist 0.5 69) d2)
    (<= (sqdist 0.5 70) d2)
    (<= (sqdist 0.5 71) d2)
    (<= (sqdist 0.5 72) d2)
    (<= (sqdist 0.5 73) d2)
    (<= (sqdist 0.5 74) d2)
    (<= (sqdist 0.5 75) d2)
    (<= (sqdist 0.5 76) d2)
    (<= (sqdist 0.5 77) d2)
    (<= (sqdist 0.5 78) d2)
    (<= (sqdist 0.5 79) d2)
    (<= (sqdist 0.5 80) d2)
    (<= (sqdist 0.5 81) d2)
    (<= (sqdist 0.5 82) d2)
    (<= (sqdist 0.5 83) d2)
    (<= (sqdist 0.5 84) d2)
    (<= (sqdist 0.5 85) d2)
    (<= (sqdist 0.5 86) d2)
    (<= (sqdist 0.5 87) d2)
    (<= (sqdist 0.5 88) d2)
    (<= (sqdist 0.5 89) d2)
    (<= (sqdist 0.5 90) d2)
    (<= (sqdist 0.5 91) d2)
    (<= (sqdist 0.5 92) d2)
    (<= (sqdist 0.5 93) d2)
    (<= (sqdist 0.5 94) d2)
    (<= (sqdist 0.5 95) d2)
    (<= (sqdist 0.5 96) d2)
    (<= (sqdist 0.5 97) d2)
    (<= (sqdist 0.5 98) d2)
    (<= (sqdist 0.5 99) d2)
    (<= (sqdist 0.5 100) d2)
    (<= (sqdist 0.5 101) d2)
    (<= (sqdist 0.5 102) d2)
    (<= (sqdist 0.5 103) d2)
    (<= (sqdist 0.5 104) d2)
    (<= (sqdist 0.5 105) d2)
    (<= (sqdist 0.5 106) d2)
    (<= (sqdist 0.5 107) d2)
    (<= (sqdist 0.5 108) d2)
    (<= (sqdist 0.5 109) d2)
    (<= (sqdist 0.5 110) d2)
    (<= (sqdist 0.5 111) d2)
    (<= (sqdist 0.5 112) d2)
    (<= (sqdist 0.5 113) d2)
    (<= (sqdist 0.5 114) d2)
    (<= (sqdist 0.5 115) d2)
    (<= (sqdist 0.5 116) d2)
    (<= (sqdist 0.5 117) d2)
    (<= (sqdist 0.5 118) d2)
    (<= (sqdist 0.5 119) d2)
    (<= (sqdist 0.5 120) d2)
    (<= (sqdist 0.5 121) d2)
    (<= (sqdist 0.5 122) d2)
    (<= (sqdist 0.5 123) d2)
    (<= (sqdist 0.5 124) d2)
    (<= (sqdist 0.5 125) d2)
    (<= (sqdist 0.5 126) d2)
    (<= (sqdist 0.5 127) d2)
    (<= (sqdist 0.5 128) d2)
    (<= (sqdist 0.5 129) d2)
    (<= (sqdist 0.5 130) d2)
    (<= (sqdist 0.5 131) d2)
    (<= (sqdist 0.5 132) d2)
    (<= (sqdist 0.5 133) d2)
    (<= (sqdist 0.5 134) d2)
    (<= (sqdist 0.5 135) d2)
    (<= (sqdist 0.5 136) d2)
    (<= (sqdist 0.5 137) d2)
    (<= (sqdist 0.5 138) d2)
    (<= (sqdist 0.5 139) d2)
    (<= (sqdist 0.5 140) d2)
    (<= (sqdist 0.5 141) d2)
    (<= (sqdist 0.5 142) d2)
    (<= (sqdist 0.5 143) d2)
    (<= (sqdist 0.5 144) d2)
    (<= (sqdist 0.5 145) d2)
    (<= (sqdist 0.5 146) d2)
    (<= (sqdist 0.5 147) d2)
    (<= (sqdist 0.5 148) d2)
    (<= (sqdist 0.5 149) d2)
    (<= (sqdist 0.5 150) d2)
    (<= (sqdist 0.5 151) d2)
    (<= (sqdist 0.5 152) d2)
    (<= (sqdist 0.5 153) d2)
    (<= (sqdist 0.5 154) d2)
    (<= (sqdist 0.5 155) d2)
    (<= (sqdist 0.5 156) d2)
    (<= (sqdist 0.5 157) d2)
    (<= (sqdist 0.5 158) d2)
    (<= (sqdist 0.5 159) d2)
    (<= (sqdist 0.5 160) d2)
    (<= (sqdist 0.5 161) d2)
    (<= (sqdist 0.5 162) d2)
    (<= (sqdist 0.5 163) d2)
    (<= (sqdist 0.5 164) d2)
    (<= (sqdist 0.5 165) d2)
    (<= (sqdist 0.5 166) d2)
    (<= (sqdist 0.5 167) d2)
    (<= (sqdist 0.5 168) d2)
    (<= (sqdist 0.5 169) d2)
    (<= (sqdist 0.5 170) d2)
    (<= (sqdist 0.5 171) d2)
    (<= (sqdist 0.5 172) d2)
    (<= (sqdist 0.5 173) d2)
    (<= (sqdist 0.5 174) d2)
    (<= (sqdist 0.5 175) d2)
    (<= (sqdist 0.5 176) d2)
    (<= (sqdist 0.5 177) d2)
    (<= (sqdist 0.5 178) d2)
    (<= (sqdist 0.5 179) d2)
    (<= (sqdist 0.5 180) d2)
    (<= (sqdist 0.5 181) d2)
    (<= (sqdist 0.5 182) d2)
    (<= (sqdist 0.5 183) d2)
    (<= (sqdist 0.5 184) d2)
    (<= (sqdist 0.5 185) d2)
    (<= (sqdist 0.5 186) d2)
    (<= (sqdist 0.5 187) d2)
    (<= (sqdist 0.5 188) d2)
    (<= (sqdist 0.5 189) d2)
    (<= (sqdist 0.5 190) d2)
    (<= (sqdist 0.5 191) d2)
    (<= (sqdist 0.5 192) d2)
    (<= (sqdist 0.5 193) d2)
    (<= (sqdist 0.5 194) d2)
    (<= (sqdist 0.5 195) d2)
    (<= (sqdist 0.5 196) d2)
    (<= (sqdist 0.5 197) d2)
    (<= (sqdist 0.5 198) d2)
    (<= (sqdist 0.5 199) d2)
  )
)

(define-fun close_p4 () Bool
  (or
    (<= (sqdist 1.0 0) d2)
    (<= (sqdist 1.0 1) d2)
    (<= (sqdist 1.0 2) d2)
    (<= (sqdist 1.0 3) d2)
    (<= (sqdist 1.0 4) d2)
    (<= (sqdist 1.0 5) d2)
    (<= (sqdist 1.0 6) d2)
    (<= (sqdist 1.0 7) d2)
    (<= (sqdist 1.0 8) d2)
    (<= (sqdist 1.0 9) d2)
    (<= (sqdist 1.0 10) d2)
    (<= (sqdist 1.0 11) d2)
    (<= (sqdist 1.0 12) d2)
    (<= (sqdist 1.0 13) d2)
    (<= (sqdist 1.0 14) d2)
    (<= (sqdist 1.0 15) d2)
    (<= (sqdist 1.0 16) d2)
    (<= (sqdist 1.0 17) d2)
    (<= (sqdist 1.0 18) d2)
    (<= (sqdist 1.0 19) d2)
    (<= (sqdist 1.0 20) d2)
    (<= (sqdist 1.0 21) d2)
    (<= (sqdist 1.0 22) d2)
    (<= (sqdist 1.0 23) d2)
    (<= (sqdist 1.0 24) d2)
    (<= (sqdist 1.0 25) d2)
    (<= (sqdist 1.0 26) d2)
    (<= (sqdist 1.0 27) d2)
    (<= (sqdist 1.0 28) d2)
    (<= (sqdist 1.0 29) d2)
    (<= (sqdist 1.0 30) d2)
    (<= (sqdist 1.0 31) d2)
    (<= (sqdist 1.0 32) d2)
    (<= (sqdist 1.0 33) d2)
    (<= (sqdist 1.0 34) d2)
    (<= (sqdist 1.0 35) d2)
    (<= (sqdist 1.0 36) d2)
    (<= (sqdist 1.0 37) d2)
    (<= (sqdist 1.0 38) d2)
    (<= (sqdist 1.0 39) d2)
    (<= (sqdist 1.0 40) d2)
    (<= (sqdist 1.0 41) d2)
    (<= (sqdist 1.0 42) d2)
    (<= (sqdist 1.0 43) d2)
    (<= (sqdist 1.0 44) d2)
    (<= (sqdist 1.0 45) d2)
    (<= (sqdist 1.0 46) d2)
    (<= (sqdist 1.0 47) d2)
    (<= (sqdist 1.0 48) d2)
    (<= (sqdist 1.0 49) d2)
    (<= (sqdist 1.0 50) d2)
    (<= (sqdist 1.0 51) d2)
    (<= (sqdist 1.0 52) d2)
    (<= (sqdist 1.0 53) d2)
    (<= (sqdist 1.0 54) d2)
    (<= (sqdist 1.0 55) d2)
    (<= (sqdist 1.0 56) d2)
    (<= (sqdist 1.0 57) d2)
    (<= (sqdist 1.0 58) d2)
    (<= (sqdist 1.0 59) d2)
    (<= (sqdist 1.0 60) d2)
    (<= (sqdist 1.0 61) d2)
    (<= (sqdist 1.0 62) d2)
    (<= (sqdist 1.0 63) d2)
    (<= (sqdist 1.0 64) d2)
    (<= (sqdist 1.0 65) d2)
    (<= (sqdist 1.0 66) d2)
    (<= (sqdist 1.0 67) d2)
    (<= (sqdist 1.0 68) d2)
    (<= (sqdist 1.0 69) d2)
    (<= (sqdist 1.0 70) d2)
    (<= (sqdist 1.0 71) d2)
    (<= (sqdist 1.0 72) d2)
    (<= (sqdist 1.0 73) d2)
    (<= (sqdist 1.0 74) d2)
    (<= (sqdist 1.0 75) d2)
    (<= (sqdist 1.0 76) d2)
    (<= (sqdist 1.0 77) d2)
    (<= (sqdist 1.0 78) d2)
    (<= (sqdist 1.0 79) d2)
    (<= (sqdist 1.0 80) d2)
    (<= (sqdist 1.0 81) d2)
    (<= (sqdist 1.0 82) d2)
    (<= (sqdist 1.0 83) d2)
    (<= (sqdist 1.0 84) d2)
    (<= (sqdist 1.0 85) d2)
    (<= (sqdist 1.0 86) d2)
    (<= (sqdist 1.0 87) d2)
    (<= (sqdist 1.0 88) d2)
    (<= (sqdist 1.0 89) d2)
    (<= (sqdist 1.0 90) d2)
    (<= (sqdist 1.0 91) d2)
    (<= (sqdist 1.0 92) d2)
    (<= (sqdist 1.0 93) d2)
    (<= (sqdist 1.0 94) d2)
    (<= (sqdist 1.0 95) d2)
    (<= (sqdist 1.0 96) d2)
    (<= (sqdist 1.0 97) d2)
    (<= (sqdist 1.0 98) d2)
    (<= (sqdist 1.0 99) d2)
    (<= (sqdist 1.0 100) d2)
    (<= (sqdist 1.0 101) d2)
    (<= (sqdist 1.0 102) d2)
    (<= (sqdist 1.0 103) d2)
    (<= (sqdist 1.0 104) d2)
    (<= (sqdist 1.0 105) d2)
    (<= (sqdist 1.0 106) d2)
    (<= (sqdist 1.0 107) d2)
    (<= (sqdist 1.0 108) d2)
    (<= (sqdist 1.0 109) d2)
    (<= (sqdist 1.0 110) d2)
    (<= (sqdist 1.0 111) d2)
    (<= (sqdist 1.0 112) d2)
    (<= (sqdist 1.0 113) d2)
    (<= (sqdist 1.0 114) d2)
    (<= (sqdist 1.0 115) d2)
    (<= (sqdist 1.0 116) d2)
    (<= (sqdist 1.0 117) d2)
    (<= (sqdist 1.0 118) d2)
    (<= (sqdist 1.0 119) d2)
    (<= (sqdist 1.0 120) d2)
    (<= (sqdist 1.0 121) d2)
    (<= (sqdist 1.0 122) d2)
    (<= (sqdist 1.0 123) d2)
    (<= (sqdist 1.0 124) d2)
    (<= (sqdist 1.0 125) d2)
    (<= (sqdist 1.0 126) d2)
    (<= (sqdist 1.0 127) d2)
    (<= (sqdist 1.0 128) d2)
    (<= (sqdist 1.0 129) d2)
    (<= (sqdist 1.0 130) d2)
    (<= (sqdist 1.0 131) d2)
    (<= (sqdist 1.0 132) d2)
    (<= (sqdist 1.0 133) d2)
    (<= (sqdist 1.0 134) d2)
    (<= (sqdist 1.0 135) d2)
    (<= (sqdist 1.0 136) d2)
    (<= (sqdist 1.0 137) d2)
    (<= (sqdist 1.0 138) d2)
    (<= (sqdist 1.0 139) d2)
    (<= (sqdist 1.0 140) d2)
    (<= (sqdist 1.0 141) d2)
    (<= (sqdist 1.0 142) d2)
    (<= (sqdist 1.0 143) d2)
    (<= (sqdist 1.0 144) d2)
    (<= (sqdist 1.0 145) d2)
    (<= (sqdist 1.0 146) d2)
    (<= (sqdist 1.0 147) d2)
    (<= (sqdist 1.0 148) d2)
    (<= (sqdist 1.0 149) d2)
    (<= (sqdist 1.0 150) d2)
    (<= (sqdist 1.0 151) d2)
    (<= (sqdist 1.0 152) d2)
    (<= (sqdist 1.0 153) d2)
    (<= (sqdist 1.0 154) d2)
    (<= (sqdist 1.0 155) d2)
    (<= (sqdist 1.0 156) d2)
    (<= (sqdist 1.0 157) d2)
    (<= (sqdist 1.0 158) d2)
    (<= (sqdist 1.0 159) d2)
    (<= (sqdist 1.0 160) d2)
    (<= (sqdist 1.0 161) d2)
    (<= (sqdist 1.0 162) d2)
    (<= (sqdist 1.0 163) d2)
    (<= (sqdist 1.0 164) d2)
    (<= (sqdist 1.0 165) d2)
    (<= (sqdist 1.0 166) d2)
    (<= (sqdist 1.0 167) d2)
    (<= (sqdist 1.0 168) d2)
    (<= (sqdist 1.0 169) d2)
    (<= (sqdist 1.0 170) d2)
    (<= (sqdist 1.0 171) d2)
    (<= (sqdist 1.0 172) d2)
    (<= (sqdist 1.0 173) d2)
    (<= (sqdist 1.0 174) d2)
    (<= (sqdist 1.0 175) d2)
    (<= (sqdist 1.0 176) d2)
    (<= (sqdist 1.0 177) d2)
    (<= (sqdist 1.0 178) d2)
    (<= (sqdist 1.0 179) d2)
    (<= (sqdist 1.0 180) d2)
    (<= (sqdist 1.0 181) d2)
    (<= (sqdist 1.0 182) d2)
    (<= (sqdist 1.0 183) d2)
    (<= (sqdist 1.0 184) d2)
    (<= (sqdist 1.0 185) d2)
    (<= (sqdist 1.0 186) d2)
    (<= (sqdist 1.0 187) d2)
    (<= (sqdist 1.0 188) d2)
    (<= (sqdist 1.0 189) d2)
    (<= (sqdist 1.0 190) d2)
    (<= (sqdist 1.0 191) d2)
    (<= (sqdist 1.0 192) d2)
    (<= (sqdist 1.0 193) d2)
    (<= (sqdist 1.0 194) d2)
    (<= (sqdist 1.0 195) d2)
    (<= (sqdist 1.0 196) d2)
    (<= (sqdist 1.0 197) d2)
    (<= (sqdist 1.0 198) d2)
    (<= (sqdist 1.0 199) d2)
  )
)

(assert
  (and
    close_p0
    close_p1
    close_p2
    close_p3
    close_p4
  )
)

(check-sat)
